<instance format="XCSP3" type="COP">
  <variables>
    <array id="s" note="Start time of operation j for job i" size="[10][10]"> 0..680 </array>
    <array id="e" note="End time of last operation of job i" size="[10]"> 0..680 </array>
    <array id="d" note="Duration of operation j for job i" size="[10][10]">
      <domain for="d[0][]"> 8 16 19 44 50 59 61 69 91 </domain>
      <domain for="d[1][]"> 13 24 26 35 40 60 81 83 84 98 </domain>
      <domain for="d[2][]"> 12 27 29 44 48 53 70 83 93 95 </domain>
      <domain for="d[3][]"> 15 18 29 35 39 50 55 84 91 97 </domain>
      <domain for="d[4][]"> 7 15 20 30 33 41 51 75 86 97 </domain>
      <domain for="d[5][]"> 3 5 7 21 22 26 40 42 48 98 </domain>
      <domain for="d[6][]"> 4 16 22 29 45 46 52 59 67 79 </domain>
      <domain for="d[7][]"> 7 19 22 36 37 45 74 76 94 </domain>
      <domain for="d[8][]"> 11 25 32 34 35 37 55 67 83 97 </domain>
      <domain for="d[9][]"> 1 15 33 50 53 56 71 72 81 89 </domain>
    </array>
    <array id="w" note="Which machine for operation j of job i" size="[10][10]"> 0..9 </array>
    <array id="sd" note="Start (dual) time of job i, machine k" size="[10][10]"> 0..680 </array>
  </variables>
  <constraints>
    <group>
      <intension> eq(%0,add(%1,%2)) </intension>
      <args> e[0] s[0][9] d[0][9] </args>
      <args> e[1] s[1][9] d[1][9] </args>
      <args> e[2] s[2][9] d[2][9] </args>
      <args> e[3] s[3][9] d[3][9] </args>
      <args> e[4] s[4][9] d[4][9] </args>
      <args> e[5] s[5][9] d[5][9] </args>
      <args> e[6] s[6][9] d[6][9] </args>
      <args> e[7] s[7][9] d[7][9] </args>
      <args> e[8] s[8][9] d[8][9] </args>
      <args> e[9] s[9][9] d[9][9] </args>
    </group>
    <group>
      <allDifferent> %... </allDifferent>
      <args> w[0][] </args>
      <args> w[1][] </args>
      <args> w[2][] </args>
      <args> w[3][] </args>
      <args> w[4][] </args>
      <args> w[5][] </args>
      <args> w[6][] </args>
      <args> w[7][] </args>
      <args> w[8][] </args>
      <args> w[9][] </args>
    </group>
    <block>
      <group>
        <extension>
          <list> %0 %1 </list>
          <supports> (0,8)(1,61)(2,19)(3,50)(4,16)(5,69)(6,91)(7,44)(8,61)(9,59) </supports>
        </extension>
        <args> w[0][0] d[0][0] </args>
        <args> w[0][1] d[0][1] </args>
        <args> w[0][2] d[0][2] </args>
        <args> w[0][3] d[0][3] </args>
        <args> w[0][4] d[0][4] </args>
        <args> w[0][5] d[0][5] </args>
        <args> w[0][6] d[0][6] </args>
        <args> w[0][7] d[0][7] </args>
        <args> w[0][8] d[0][8] </args>
        <args> w[0][9] d[0][9] </args>
      </group>
      <group>
        <extension>
          <list> %0 %1 </list>
          <supports> (0,24)(1,84)(2,98)(3,83)(4,60)(5,13)(6,35)(7,40)(8,81)(9,26) </supports>
        </extension>
        <args> w[1][0] d[1][0] </args>
        <args> w[1][1] d[1][1] </args>
        <args> w[1][2] d[1][2] </args>
        <args> w[1][3] d[1][3] </args>
        <args> w[1][4] d[1][4] </args>
        <args> w[1][5] d[1][5] </args>
        <args> w[1][6] d[1][6] </args>
        <args> w[1][7] d[1][7] </args>
        <args> w[1][8] d[1][8] </args>
        <args> w[1][9] d[1][9] </args>
      </group>
      <group>
        <extension>
          <list> %0 %1 </list>
          <supports> (0,53)(1,83)(2,27)(3,93)(4,70)(5,95)(6,12)(7,29)(8,44)(9,48) </supports>
        </extension>
        <args> w[2][0] d[2][0] </args>
        <args> w[2][1] d[2][1] </args>
        <args> w[2][2] d[2][2] </args>
        <args> w[2][3] d[2][3] </args>
        <args> w[2][4] d[2][4] </args>
        <args> w[2][5] d[2][5] </args>
        <args> w[2][6] d[2][6] </args>
        <args> w[2][7] d[2][7] </args>
        <args> w[2][8] d[2][8] </args>
        <args> w[2][9] d[2][9] </args>
      </group>
      <group>
        <extension>
          <list> %0 %1 </list>
          <supports> (0,91)(1,35)(2,15)(3,18)(4,55)(5,50)(6,29)(7,97)(8,39)(9,84) </supports>
        </extension>
        <args> w[3][0] d[3][0] </args>
        <args> w[3][1] d[3][1] </args>
        <args> w[3][2] d[3][2] </args>
        <args> w[3][3] d[3][3] </args>
        <args> w[3][4] d[3][4] </args>
        <args> w[3][5] d[3][5] </args>
        <args> w[3][6] d[3][6] </args>
        <args> w[3][7] d[3][7] </args>
        <args> w[3][8] d[3][8] </args>
        <args> w[3][9] d[3][9] </args>
      </group>
      <group>
        <extension>
          <list> %0 %1 </list>
          <supports> (0,86)(1,41)(2,97)(3,7)(4,30)(5,75)(6,15)(7,20)(8,33)(9,51) </supports>
        </extension>
        <args> w[4][0] d[4][0] </args>
        <args> w[4][1] d[4][1] </args>
        <args> w[4][2] d[4][2] </args>
        <args> w[4][3] d[4][3] </args>
        <args> w[4][4] d[4][4] </args>
        <args> w[4][5] d[4][5] </args>
        <args> w[4][6] d[4][6] </args>
        <args> w[4][7] d[4][7] </args>
        <args> w[4][8] d[4][8] </args>
        <args> w[4][9] d[4][9] </args>
      </group>
      <group>
        <extension>
          <list> %0 %1 </list>
          <supports> (0,48)(1,21)(2,42)(3,98)(4,22)(5,7)(6,3)(7,5)(8,26)(9,40) </supports>
        </extension>
        <args> w[5][0] d[5][0] </args>
        <args> w[5][1] d[5][1] </args>
        <args> w[5][2] d[5][2] </args>
        <args> w[5][3] d[5][3] </args>
        <args> w[5][4] d[5][4] </args>
        <args> w[5][5] d[5][5] </args>
        <args> w[5][6] d[5][6] </args>
        <args> w[5][7] d[5][7] </args>
        <args> w[5][8] d[5][8] </args>
        <args> w[5][9] d[5][9] </args>
      </group>
      <group>
        <extension>
          <list> %0 %1 </list>
          <supports> (0,16)(1,4)(2,29)(3,59)(4,52)(5,46)(6,22)(7,67)(8,79)(9,45) </supports>
        </extension>
        <args> w[6][0] d[6][0] </args>
        <args> w[6][1] d[6][1] </args>
        <args> w[6][2] d[6][2] </args>
        <args> w[6][3] d[6][3] </args>
        <args> w[6][4] d[6][4] </args>
        <args> w[6][5] d[6][5] </args>
        <args> w[6][6] d[6][6] </args>
        <args> w[6][7] d[6][7] </args>
        <args> w[6][8] d[6][8] </args>
        <args> w[6][9] d[6][9] </args>
      </group>
      <group>
        <extension>
          <list> %0 %1 </list>
          <supports> (0,45)(1,94)(2,22)(3,36)(4,74)(5,37)(6,76)(7,19)(8,94)(9,7) </supports>
        </extension>
        <args> w[7][0] d[7][0] </args>
        <args> w[7][1] d[7][1] </args>
        <args> w[7][2] d[7][2] </args>
        <args> w[7][3] d[7][3] </args>
        <args> w[7][4] d[7][4] </args>
        <args> w[7][5] d[7][5] </args>
        <args> w[7][6] d[7][6] </args>
        <args> w[7][7] d[7][7] </args>
        <args> w[7][8] d[7][8] </args>
        <args> w[7][9] d[7][9] </args>
      </group>
      <group>
        <extension>
          <list> %0 %1 </list>
          <supports> (0,11)(1,83)(2,97)(3,37)(4,34)(5,67)(6,55)(7,25)(8,32)(9,35) </supports>
        </extension>
        <args> w[8][0] d[8][0] </args>
        <args> w[8][1] d[8][1] </args>
        <args> w[8][2] d[8][2] </args>
        <args> w[8][3] d[8][3] </args>
        <args> w[8][4] d[8][4] </args>
        <args> w[8][5] d[8][5] </args>
        <args> w[8][6] d[8][6] </args>
        <args> w[8][7] d[8][7] </args>
        <args> w[8][8] d[8][8] </args>
        <args> w[8][9] d[8][9] </args>
      </group>
      <group>
        <extension>
          <list> %0 %1 </list>
          <supports> (0,81)(1,71)(2,56)(3,89)(4,33)(5,1)(6,15)(7,53)(8,72)(9,50) </supports>
        </extension>
        <args> w[9][0] d[9][0] </args>
        <args> w[9][1] d[9][1] </args>
        <args> w[9][2] d[9][2] </args>
        <args> w[9][3] d[9][3] </args>
        <args> w[9][4] d[9][4] </args>
        <args> w[9][5] d[9][5] </args>
        <args> w[9][6] d[9][6] </args>
        <args> w[9][7] d[9][7] </args>
        <args> w[9][8] d[9][8] </args>
        <args> w[9][9] d[9][9] </args>
      </group>
    </block>
    <group>
      <intension> le(add(%0,%1),%2) </intension>
      <args> s[0][0] d[0][0] s[0][1] </args>
      <args> s[0][1] d[0][1] s[0][2] </args>
      <args> s[0][2] d[0][2] s[0][3] </args>
      <args> s[0][3] d[0][3] s[0][4] </args>
      <args> s[0][4] d[0][4] s[0][5] </args>
      <args> s[0][5] d[0][5] s[0][6] </args>
      <args> s[0][6] d[0][6] s[0][7] </args>
      <args> s[0][7] d[0][7] s[0][8] </args>
      <args> s[0][8] d[0][8] s[0][9] </args>
      <args> s[1][0] d[1][0] s[1][1] </args>
      <args> s[1][1] d[1][1] s[1][2] </args>
      <args> s[1][2] d[1][2] s[1][3] </args>
      <args> s[1][3] d[1][3] s[1][4] </args>
      <args> s[1][4] d[1][4] s[1][5] </args>
      <args> s[1][5] d[1][5] s[1][6] </args>
      <args> s[1][6] d[1][6] s[1][7] </args>
      <args> s[1][7] d[1][7] s[1][8] </args>
      <args> s[1][8] d[1][8] s[1][9] </args>
      <args> s[2][0] d[2][0] s[2][1] </args>
      <args> s[2][1] d[2][1] s[2][2] </args>
      <args> s[2][2] d[2][2] s[2][3] </args>
      <args> s[2][3] d[2][3] s[2][4] </args>
      <args> s[2][4] d[2][4] s[2][5] </args>
      <args> s[2][5] d[2][5] s[2][6] </args>
      <args> s[2][6] d[2][6] s[2][7] </args>
      <args> s[2][7] d[2][7] s[2][8] </args>
      <args> s[2][8] d[2][8] s[2][9] </args>
      <args> s[3][0] d[3][0] s[3][1] </args>
      <args> s[3][1] d[3][1] s[3][2] </args>
      <args> s[3][2] d[3][2] s[3][3] </args>
      <args> s[3][3] d[3][3] s[3][4] </args>
      <args> s[3][4] d[3][4] s[3][5] </args>
      <args> s[3][5] d[3][5] s[3][6] </args>
      <args> s[3][6] d[3][6] s[3][7] </args>
      <args> s[3][7] d[3][7] s[3][8] </args>
      <args> s[3][8] d[3][8] s[3][9] </args>
      <args> s[4][0] d[4][0] s[4][1] </args>
      <args> s[4][1] d[4][1] s[4][2] </args>
      <args> s[4][2] d[4][2] s[4][3] </args>
      <args> s[4][3] d[4][3] s[4][4] </args>
      <args> s[4][4] d[4][4] s[4][5] </args>
      <args> s[4][5] d[4][5] s[4][6] </args>
      <args> s[4][6] d[4][6] s[4][7] </args>
      <args> s[4][7] d[4][7] s[4][8] </args>
      <args> s[4][8] d[4][8] s[4][9] </args>
      <args> s[5][0] d[5][0] s[5][1] </args>
      <args> s[5][1] d[5][1] s[5][2] </args>
      <args> s[5][2] d[5][2] s[5][3] </args>
      <args> s[5][3] d[5][3] s[5][4] </args>
      <args> s[5][4] d[5][4] s[5][5] </args>
      <args> s[5][5] d[5][5] s[5][6] </args>
      <args> s[5][6] d[5][6] s[5][7] </args>
      <args> s[5][7] d[5][7] s[5][8] </args>
      <args> s[5][8] d[5][8] s[5][9] </args>
      <args> s[6][0] d[6][0] s[6][1] </args>
      <args> s[6][1] d[6][1] s[6][2] </args>
      <args> s[6][2] d[6][2] s[6][3] </args>
      <args> s[6][3] d[6][3] s[6][4] </args>
      <args> s[6][4] d[6][4] s[6][5] </args>
      <args> s[6][5] d[6][5] s[6][6] </args>
      <args> s[6][6] d[6][6] s[6][7] </args>
      <args> s[6][7] d[6][7] s[6][8] </args>
      <args> s[6][8] d[6][8] s[6][9] </args>
      <args> s[7][0] d[7][0] s[7][1] </args>
      <args> s[7][1] d[7][1] s[7][2] </args>
      <args> s[7][2] d[7][2] s[7][3] </args>
      <args> s[7][3] d[7][3] s[7][4] </args>
      <args> s[7][4] d[7][4] s[7][5] </args>
      <args> s[7][5] d[7][5] s[7][6] </args>
      <args> s[7][6] d[7][6] s[7][7] </args>
      <args> s[7][7] d[7][7] s[7][8] </args>
      <args> s[7][8] d[7][8] s[7][9] </args>
      <args> s[8][0] d[8][0] s[8][1] </args>
      <args> s[8][1] d[8][1] s[8][2] </args>
      <args> s[8][2] d[8][2] s[8][3] </args>
      <args> s[8][3] d[8][3] s[8][4] </args>
      <args> s[8][4] d[8][4] s[8][5] </args>
      <args> s[8][5] d[8][5] s[8][6] </args>
      <args> s[8][6] d[8][6] s[8][7] </args>
      <args> s[8][7] d[8][7] s[8][8] </args>
      <args> s[8][8] d[8][8] s[8][9] </args>
      <args> s[9][0] d[9][0] s[9][1] </args>
      <args> s[9][1] d[9][1] s[9][2] </args>
      <args> s[9][2] d[9][2] s[9][3] </args>
      <args> s[9][3] d[9][3] s[9][4] </args>
      <args> s[9][4] d[9][4] s[9][5] </args>
      <args> s[9][5] d[9][5] s[9][6] </args>
      <args> s[9][6] d[9][6] s[9][7] </args>
      <args> s[9][7] d[9][7] s[9][8] </args>
      <args> s[9][8] d[9][8] s[9][9] </args>
    </group>
    <block class="channeling">
      <group>
        <element>
          <list> sd[0][] </list>
          <index> %0 </index>
          <value> %1 </value>
        </element>
        <args> w[0][0] s[0][0] </args>
        <args> w[0][1] s[0][1] </args>
        <args> w[0][2] s[0][2] </args>
        <args> w[0][3] s[0][3] </args>
        <args> w[0][4] s[0][4] </args>
        <args> w[0][5] s[0][5] </args>
        <args> w[0][6] s[0][6] </args>
        <args> w[0][7] s[0][7] </args>
        <args> w[0][8] s[0][8] </args>
        <args> w[0][9] s[0][9] </args>
      </group>
      <group>
        <element>
          <list> sd[1][] </list>
          <index> %0 </index>
          <value> %1 </value>
        </element>
        <args> w[1][0] s[1][0] </args>
        <args> w[1][1] s[1][1] </args>
        <args> w[1][2] s[1][2] </args>
        <args> w[1][3] s[1][3] </args>
        <args> w[1][4] s[1][4] </args>
        <args> w[1][5] s[1][5] </args>
        <args> w[1][6] s[1][6] </args>
        <args> w[1][7] s[1][7] </args>
        <args> w[1][8] s[1][8] </args>
        <args> w[1][9] s[1][9] </args>
      </group>
      <group>
        <element>
          <list> sd[2][] </list>
          <index> %0 </index>
          <value> %1 </value>
        </element>
        <args> w[2][0] s[2][0] </args>
        <args> w[2][1] s[2][1] </args>
        <args> w[2][2] s[2][2] </args>
        <args> w[2][3] s[2][3] </args>
        <args> w[2][4] s[2][4] </args>
        <args> w[2][5] s[2][5] </args>
        <args> w[2][6] s[2][6] </args>
        <args> w[2][7] s[2][7] </args>
        <args> w[2][8] s[2][8] </args>
        <args> w[2][9] s[2][9] </args>
      </group>
      <group>
        <element>
          <list> sd[3][] </list>
          <index> %0 </index>
          <value> %1 </value>
        </element>
        <args> w[3][0] s[3][0] </args>
        <args> w[3][1] s[3][1] </args>
        <args> w[3][2] s[3][2] </args>
        <args> w[3][3] s[3][3] </args>
        <args> w[3][4] s[3][4] </args>
        <args> w[3][5] s[3][5] </args>
        <args> w[3][6] s[3][6] </args>
        <args> w[3][7] s[3][7] </args>
        <args> w[3][8] s[3][8] </args>
        <args> w[3][9] s[3][9] </args>
      </group>
      <group>
        <element>
          <list> sd[4][] </list>
          <index> %0 </index>
          <value> %1 </value>
        </element>
        <args> w[4][0] s[4][0] </args>
        <args> w[4][1] s[4][1] </args>
        <args> w[4][2] s[4][2] </args>
        <args> w[4][3] s[4][3] </args>
        <args> w[4][4] s[4][4] </args>
        <args> w[4][5] s[4][5] </args>
        <args> w[4][6] s[4][6] </args>
        <args> w[4][7] s[4][7] </args>
        <args> w[4][8] s[4][8] </args>
        <args> w[4][9] s[4][9] </args>
      </group>
      <group>
        <element>
          <list> sd[5][] </list>
          <index> %0 </index>
          <value> %1 </value>
        </element>
        <args> w[5][0] s[5][0] </args>
        <args> w[5][1] s[5][1] </args>
        <args> w[5][2] s[5][2] </args>
        <args> w[5][3] s[5][3] </args>
        <args> w[5][4] s[5][4] </args>
        <args> w[5][5] s[5][5] </args>
        <args> w[5][6] s[5][6] </args>
        <args> w[5][7] s[5][7] </args>
        <args> w[5][8] s[5][8] </args>
        <args> w[5][9] s[5][9] </args>
      </group>
      <group>
        <element>
          <list> sd[6][] </list>
          <index> %0 </index>
          <value> %1 </value>
        </element>
        <args> w[6][0] s[6][0] </args>
        <args> w[6][1] s[6][1] </args>
        <args> w[6][2] s[6][2] </args>
        <args> w[6][3] s[6][3] </args>
        <args> w[6][4] s[6][4] </args>
        <args> w[6][5] s[6][5] </args>
        <args> w[6][6] s[6][6] </args>
        <args> w[6][7] s[6][7] </args>
        <args> w[6][8] s[6][8] </args>
        <args> w[6][9] s[6][9] </args>
      </group>
      <group>
        <element>
          <list> sd[7][] </list>
          <index> %0 </index>
          <value> %1 </value>
        </element>
        <args> w[7][0] s[7][0] </args>
        <args> w[7][1] s[7][1] </args>
        <args> w[7][2] s[7][2] </args>
        <args> w[7][3] s[7][3] </args>
        <args> w[7][4] s[7][4] </args>
        <args> w[7][5] s[7][5] </args>
        <args> w[7][6] s[7][6] </args>
        <args> w[7][7] s[7][7] </args>
        <args> w[7][8] s[7][8] </args>
        <args> w[7][9] s[7][9] </args>
      </group>
      <group>
        <element>
          <list> sd[8][] </list>
          <index> %0 </index>
          <value> %1 </value>
        </element>
        <args> w[8][0] s[8][0] </args>
        <args> w[8][1] s[8][1] </args>
        <args> w[8][2] s[8][2] </args>
        <args> w[8][3] s[8][3] </args>
        <args> w[8][4] s[8][4] </args>
        <args> w[8][5] s[8][5] </args>
        <args> w[8][6] s[8][6] </args>
        <args> w[8][7] s[8][7] </args>
        <args> w[8][8] s[8][8] </args>
        <args> w[8][9] s[8][9] </args>
      </group>
      <group>
        <element>
          <list> sd[9][] </list>
          <index> %0 </index>
          <value> %1 </value>
        </element>
        <args> w[9][0] s[9][0] </args>
        <args> w[9][1] s[9][1] </args>
        <args> w[9][2] s[9][2] </args>
        <args> w[9][3] s[9][3] </args>
        <args> w[9][4] s[9][4] </args>
        <args> w[9][5] s[9][5] </args>
        <args> w[9][6] s[9][6] </args>
        <args> w[9][7] s[9][7] </args>
        <args> w[9][8] s[9][8] </args>
        <args> w[9][9] s[9][9] </args>
      </group>
    </block>
    <block>
      <noOverlap>
        <origins> sd[][0] </origins>
        <lengths> 8 24 53 91 86 48 16 45 11 81 </lengths>
      </noOverlap>
      <noOverlap>
        <origins> sd[][1] </origins>
        <lengths> 61 84 83 35 41 21 4 94 83 71 </lengths>
      </noOverlap>
      <noOverlap>
        <origins> sd[][2] </origins>
        <lengths> 19 98 27 15 97 42 29 22 97 56 </lengths>
      </noOverlap>
      <noOverlap>
        <origins> sd[][3] </origins>
        <lengths> 50 83 93 18 7 98 59 36 37 89 </lengths>
      </noOverlap>
      <noOverlap>
        <origins> sd[][4] </origins>
        <lengths> 16 60 70 55 30 22 52 74 34 33 </lengths>
      </noOverlap>
      <noOverlap>
        <origins> sd[][5] </origins>
        <lengths> 69 13 95 50 75 7 46 37 67 1 </lengths>
      </noOverlap>
      <noOverlap>
        <origins> sd[][6] </origins>
        <lengths> 91 35 12 29 15 3 22 76 55 15 </lengths>
      </noOverlap>
      <noOverlap>
        <origins> sd[][7] </origins>
        <lengths> 44 40 29 97 20 5 67 19 25 53 </lengths>
      </noOverlap>
      <noOverlap>
        <origins> sd[][8] </origins>
        <lengths> 61 81 44 39 33 26 79 94 32 72 </lengths>
      </noOverlap>
      <noOverlap>
        <origins> sd[][9] </origins>
        <lengths> 59 26 48 84 51 40 45 7 35 50 </lengths>
      </noOverlap>
    </block>
    <group class="redundantConstraints">
      <intension> ge(%0,%1) </intension>
      <args> e[0] 478 </args>
      <args> e[1] 544 </args>
      <args> e[2] 554 </args>
      <args> e[3] 513 </args>
      <args> e[4] 455 </args>
      <args> e[5] 312 </args>
      <args> e[6] 419 </args>
      <args> e[7] 504 </args>
      <args> e[8] 476 </args>
      <args> e[9] 521 </args>
    </group>
  </constraints>
  <objectives>
    <minimize type="maximum"> e[] </minimize>
  </objectives>
</instance>
